Gurobi Optimizer version 9.1.2 build v9.1.2rc0 (linux64)
Thread count: 36 physical cores, 72 logical processors, using up to 32 threads
Optimize a model with 12 rows, 57 columns and 590 nonzeros
Model fingerprint: 0xf32eec78
Model has 47 quadratic constraints
Coefficient statistics:
  Matrix range     [2e-05, 3e+00]
  QMatrix range    [1e+00, 1e+00]
  QLMatrix range   [1e+00, 1e+00]
  Objective range  [8e-03, 7e-01]
  Bounds range     [1e+00, 1e+00]
  RHS range        [1e+00, 1e+00]
Presolve removed 9 rows and 0 columns

Continuous model is non-convex -- solving as a MIP.

Presolve removed 9 rows and 0 columns
Presolve time: 0.00s
Presolved: 189 rows, 57 columns, 443 nonzeros
Presolved model has 47 bilinear constraint(s)
Variable types: 57 continuous, 0 integer (0 binary)

Root relaxation: objective -1.743721e+00, 44 iterations, 0.00 seconds

    Nodes    |    Current Node    |     Objective Bounds      |     Work
 Expl Unexpl |  Obj  Depth IntInf | Incumbent    BestBd   Gap | It/Node Time

     0     0   -1.74372    0   38          -   -1.74372      -     -    0s
H    0     0                       0.6147548   -1.74372   384%     -    0s
     0     0   -1.64739    0    1    0.61475   -1.64739   368%     -    0s
H    0     0                      -1.6450460   -1.64739  0.14%     -    0s
     0     0     cutoff    0        -1.64505   -1.64505  0.00%     -    0s

Cutting planes:
  RLT: 25
  BQP: 3

Explored 1 nodes (76 simplex iterations) in 0.01 seconds
Thread count was 32 (of 72 available processors)

Solution count 2: -1.64505 0.614755 
No other solutions better than -1.64505

Optimal solution found (tolerance 1.00e-04)
Best objective -1.645045978473e+00, best bound -1.645045978473e+00, gap 0.0000%

User-callback calls 78, time in user-callback 0.00 sec
Gurobi Optimizer version 9.1.2 build v9.1.2rc0 (linux64)
Thread count: 36 physical cores, 72 logical processors, using up to 32 threads
Optimize a model with 24 rows, 120 columns and 2480 nonzeros
Model fingerprint: 0x028cf786
Model has 100 quadratic constraints
Coefficient statistics:
  Matrix range     [8e-06, 4e+00]
  QMatrix range    [1e+00, 1e+00]
  QLMatrix range   [1e+00, 1e+00]
  Objective range  [4e-03, 1e+00]
  Bounds range     [1e+00, 1e+00]
  RHS range        [1e+00, 1e+00]
Presolve removed 17 rows and 0 columns

Continuous model is non-convex -- solving as a MIP.

Presolve removed 17 rows and 0 columns
Presolve time: 0.00s
Presolved: 407 rows, 120 columns, 1231 nonzeros
Presolved model has 100 bilinear constraint(s)
Variable types: 120 continuous, 0 integer (0 binary)

Root relaxation: objective -6.778581e+00, 129 iterations, 0.00 seconds

    Nodes    |    Current Node    |     Objective Bounds      |     Work
 Expl Unexpl |  Obj  Depth IntInf | Incumbent    BestBd   Gap | It/Node Time

     0     0   -6.77858    0  100          -   -6.77858      -     -    0s
H    0     0                       1.4128204   -6.77858   580%     -    0s
     0     0   -4.61660    0   90    1.41282   -4.61660   427%     -    0s
H    0     0                       0.3592711   -4.61660  1385%     -    0s
     0     0   -4.61254    0   90    0.35927   -4.61254  1384%     -    0s
     0     0   -4.07092    0   90    0.35927   -4.07092  1233%     -    0s
H    0     0                      -0.1296161   -4.07092  3041%     -    0s
     0     0   -4.02924    0   90   -0.12962   -4.02924  3009%     -    0s
     0     0   -3.92210    0  100   -0.12962   -3.92210  2926%     -    0s
     0     0   -3.88658    0   90   -0.12962   -3.88658  2899%     -    0s
     0     0   -3.82194    0  100   -0.12962   -3.82194  2849%     -    0s
H    0     0                      -0.2123531   -3.82194  1700%     -    0s
     0     0   -3.81311    0  100   -0.21235   -3.81311  1696%     -    0s
     0     0   -3.80311    0  100   -0.21235   -3.80311  1691%     -    0s
     0     0   -3.79702    0   90   -0.21235   -3.79702  1688%     -    0s
     0     0   -3.79543    0   90   -0.21235   -3.79543  1687%     -    0s
     0     0   -3.79331    0   90   -0.21235   -3.79331  1686%     -    0s
     0     0   -3.79274    0   90   -0.21235   -3.79274  1686%     -    0s
H    0     0                      -1.3886475   -3.79274   173%     -    0s
H    0     0                      -1.6005519   -3.79274   137%     -    0s
H    0     0                      -1.6724649   -3.79274   127%     -    0s
H    0     0                      -1.7980235   -3.79274   111%     -    0s
     0     2   -3.79274    0   90   -1.79802   -3.79274   111%     -    0s
* 1069  1177              22      -3.0665941   -3.41148  11.2%  29.6    0s
* 1590   827              17      -3.0712564   -3.14414  2.37%  24.8    0s
* 1591   827              17      -3.0714572   -3.14414  2.37%  24.8    0s
* 1593   827              17      -3.0745985   -3.14414  2.26%  24.7    0s
* 1862   825              22      -3.0804918   -3.14414  2.07%  21.7    0s
* 1941   825              22      -3.0976082   -3.14414  1.50%  21.3    0s
* 1942   825              22      -3.0976100   -3.14414  1.50%  21.3    0s
* 1975   825              21      -3.0976357   -3.14414  1.50%  21.2    0s
* 2293   641              23      -3.1091982   -3.11115  0.06%  19.0    0s
* 2297   641              26      -3.1095358   -3.11099  0.05%  19.0    0s
* 2532   641              25      -3.1095481   -3.11093  0.04%  17.8    0s
* 2688   183              20      -3.1109139   -3.11092  0.00%  17.0    0s
* 2689   183              20      -3.1109181   -3.11092  0.00%  17.0    0s

Cutting planes:
  RLT: 78
  BQP: 11
  PSD: 14

Explored 3230 nodes (46890 simplex iterations) in 0.62 seconds
Thread count was 32 (of 72 available processors)

Solution count 10: -3.11092 -3.10955 -3.10954 ... -3.07126
No other solutions better than -3.11092

Optimal solution found (tolerance 1.00e-04)
Best objective -3.110918095225e+00, best bound -3.110918095225e+00, gap 0.0000%

User-callback calls 6764, time in user-callback 0.00 sec



objective value: -3.1109180952254705
objective bound: -3.1109180952254705
x_opt: [0.0, 1.0, 1.0, 0.4512624031775144, 1.0, 0.0, 0.0744091173948268, 0.0, 0.17893850255691712, 1.0, 0.0, 0.0026198179707325586, 1.0, 1.0, 1.0, 0.0, 0.0, 0.0, 0.0, 0.0]
GUROBI solution time: 0.6226859092712402




